(declare-fun temp117397_1 () (_ BitVec 64))
(declare-fun temp117397_2 () (_ BitVec 64))
(declare-fun var77740 () (_ BitVec 64))
(declare-fun k!0 () Bool)
(declare-fun ARGNAME_filter_NAMEEND_DIM () (_ BitVec 64))
(declare-fun ARGNAME_data_format_NAMEEND_STRFMT () (_ BitVec 64))
(declare-fun temp117397_3 () (_ BitVec 64))
(declare-fun ARGNAME_out_backprop_NAMEEND_DIM () (_ BitVec 64))
(declare-fun var77770 () (_ BitVec 64))
(declare-fun temp117397_4 () (_ BitVec 64))
(declare-fun temp117397_5 () (_ BitVec 64))
(declare-fun ARGNAME_filter_NAMEEND_DIMSIZE
             ()
             (Array (_ BitVec 64) (_ BitVec 64)))
(declare-fun temp117397_6 () (_ BitVec 64))
(declare-fun temp117397_7 () (_ BitVec 64))
(declare-fun temp117397_8 () (_ BitVec 64))
(declare-fun temp117397_9 () (_ BitVec 64))
(declare-fun temp117397_10 () (_ BitVec 64))
(declare-fun temp117397_11 () (_ BitVec 64))
(declare-fun temp117397_12 () (_ BitVec 64))
(declare-fun temp117397_13 () (_ BitVec 64))
(declare-fun temp117397_14 () (_ BitVec 64))
(declare-fun temp117397_15 () (_ BitVec 64))
(declare-fun temp117397_16 () (_ BitVec 64))
(declare-fun temp117397_17 () (_ BitVec 64))
(declare-fun temp117397_18 () (_ BitVec 64))
(declare-fun var77799 () (_ BitVec 64))
(declare-fun temp117397_19 () (_ BitVec 64))
(declare-fun ARGNAME_out_backprop_NAMEEND_DIMSIZE
             ()
             (Array (_ BitVec 64) (_ BitVec 64)))
(declare-fun temp117397_20 () (_ BitVec 64))
(declare-fun temp117397_21 () (_ BitVec 64))
(declare-fun temp117397_22 () (_ BitVec 64))
(declare-fun temp117397_23 () (_ BitVec 64))
(declare-fun temp117397_24 () (_ BitVec 64))
(declare-fun temp117397_25 () (_ BitVec 64))
(declare-fun temp117397_26 () (_ BitVec 64))
(declare-fun temp117397_27 () (_ BitVec 64))
(declare-fun temp117397_28 () (_ BitVec 64))
(declare-fun temp117397_29 () (_ BitVec 64))
(declare-fun temp117397_30 () (_ BitVec 64))
(declare-fun temp117397_31 () (_ BitVec 64))
(declare-fun temp117397_32 () (_ BitVec 64))
(declare-fun var77832 () (_ BitVec 64))
(declare-fun temp117397_33 () (_ BitVec 64))
(declare-fun temp117397_34 () (_ BitVec 64))
(declare-fun var77833 () (_ BitVec 64))
(declare-fun var77834 () (_ BitVec 64))
(declare-fun temp117397_35 () (_ BitVec 64))
(declare-fun temp117397_36 () (_ BitVec 64))
(declare-fun var275510 () (_ BitVec 64))
(declare-fun temp117397_37 () (_ BitVec 64))
(declare-fun var275528 () (_ BitVec 64))
(declare-fun temp117397_38 () (_ BitVec 64))
(declare-fun temp117397_39 () (_ BitVec 64))
(declare-fun var406582 () (_ BitVec 64))
(declare-fun temp117397_40 () (_ BitVec 64))
(declare-fun var406600 () (_ BitVec 64))
(declare-fun temp117397_41 () (_ BitVec 64))
(declare-fun temp117397_42 () (_ BitVec 64))
(declare-fun var537654 () (_ BitVec 64))
(declare-fun temp117397_43 () (_ BitVec 64))
(declare-fun var537672 () (_ BitVec 64))
(declare-fun temp117397_44 () (_ BitVec 64))
(declare-fun temp117397_46 () (_ BitVec 64))
(declare-fun temp117397_45 () (_ BitVec 64))
(declare-fun temp117397_48 () (_ BitVec 64))
(declare-fun temp117397_47 () (_ BitVec 64))
(declare-fun temp117397_50 () (_ BitVec 64))
(declare-fun temp117397_49 () (_ BitVec 64))
(declare-fun temp117397_52 () (_ BitVec 64))
(declare-fun temp117397_51 () (_ BitVec 64))
(declare-fun temp117397_54 () (_ BitVec 64))
(declare-fun temp117397_53 () (_ BitVec 64))
(declare-fun temp117397_56 () (_ BitVec 64))
(declare-fun temp117397_55 () (_ BitVec 64))
(declare-fun temp117397_57 () (_ BitVec 64))
(declare-fun var926770 () (_ BitVec 64))
(declare-fun temp117397_58 () (_ BitVec 64))
(declare-fun var926771 () (_ BitVec 64))
(declare-fun var926772 () (_ BitVec 64))
(declare-fun var926768 () (_ BitVec 64))
(declare-fun var599004 () (_ BitVec 64))
(declare-fun temp117397_59 () (_ BitVec 64))
(declare-fun var992306 () (_ BitVec 64))
(declare-fun temp117397_60 () (_ BitVec 64))
(declare-fun var992307 () (_ BitVec 64))
(declare-fun var992308 () (_ BitVec 64))
(declare-fun var992304 () (_ BitVec 64))
(declare-fun var599011 () (_ BitVec 64))
(declare-fun temp117397_61 () (_ BitVec 64))
(declare-fun var1057842 () (_ BitVec 64))
(declare-fun temp117397_62 () (_ BitVec 64))
(declare-fun var1057843 () (_ BitVec 64))
(declare-fun var1057844 () (_ BitVec 64))
(declare-fun var1057840 () (_ BitVec 64))
(declare-fun var599016 () (_ BitVec 64))
(declare-fun var78095 () (_ BitVec 64))
(declare-fun temp117397_63 () (_ BitVec 64))
(declare-fun temp117397_64 () (_ BitVec 64))
(declare-fun var78096 () (_ BitVec 64))
(declare-fun var78179 () (_ BitVec 64))
(declare-fun temp117397_66 () (_ BitVec 64))
(declare-fun temp117397_65 () (_ BitVec 64))
(declare-fun temp117397_68 () (_ BitVec 64))
(declare-fun temp117397_67 () (_ BitVec 64))
(declare-fun temp117397_69 () (_ BitVec 64))
(declare-fun var78544 () (_ BitVec 64))
(declare-fun temp117397_70 () (_ BitVec 64))
(declare-fun var78545 () (_ BitVec 64))
(assert (or (= ARGNAME_data_format_NAMEEND_STRFMT #x0000000000000000)
    (= ARGNAME_data_format_NAMEEND_STRFMT #x0000000000000001)
    (= ARGNAME_data_format_NAMEEND_STRFMT #x0000000000000002)
    (= ARGNAME_data_format_NAMEEND_STRFMT #x0000000000000003)
    (= ARGNAME_data_format_NAMEEND_STRFMT #x0000000000000004)
    (= ARGNAME_data_format_NAMEEND_STRFMT #x0000000000000005)))
(assert (= temp117397_1 #x0000000000000005))
(assert (= var77740
   (ite (= ARGNAME_filter_NAMEEND_DIM temp117397_1)
        #x0000000000000001
        #x0000000000000000)))
(assert (= temp117397_2 #x0000000000000001))
(assert (= var77740 temp117397_2))
(assert (= temp117397_3 #x0000000000000005))
(assert (= var77770
   (ite (= ARGNAME_out_backprop_NAMEEND_DIM temp117397_3)
        #x0000000000000001
        #x0000000000000000)))
(assert (= temp117397_4 #x0000000000000001))
(assert (= var77770 temp117397_4))
(assert (= temp117397_5 #x0000000000000000))
(assert (= temp117397_6 (select ARGNAME_filter_NAMEEND_DIMSIZE temp117397_5)))
(assert (= temp117397_7 #x0000000000000001))
(assert (= temp117397_8 (select ARGNAME_filter_NAMEEND_DIMSIZE temp117397_7)))
(assert (= temp117397_9 #x0000000000000002))
(assert (= temp117397_10 (select ARGNAME_filter_NAMEEND_DIMSIZE temp117397_9)))
(assert (= temp117397_11 #x0000000000000003))
(assert (= temp117397_12 (select ARGNAME_filter_NAMEEND_DIMSIZE temp117397_11)))
(assert (= temp117397_13 #x0000000000000004))
(assert (= temp117397_14 (select ARGNAME_filter_NAMEEND_DIMSIZE temp117397_13)))
(assert (= temp117397_15 #x0000000000000005))
(assert (= temp117397_16 (select ARGNAME_filter_NAMEEND_DIMSIZE temp117397_15)))
(assert (= temp117397_17 #x0000000000000003))
(assert (= temp117397_18 (select ARGNAME_filter_NAMEEND_DIMSIZE temp117397_17)))
(assert (= var77799 temp117397_18))
(assert (= temp117397_19 #x0000000000000000))
(assert (= temp117397_20 (select ARGNAME_out_backprop_NAMEEND_DIMSIZE temp117397_19)))
(assert (= temp117397_21 #x0000000000000001))
(assert (= temp117397_22 (select ARGNAME_out_backprop_NAMEEND_DIMSIZE temp117397_21)))
(assert (= temp117397_23 #x0000000000000002))
(assert (= temp117397_24 (select ARGNAME_out_backprop_NAMEEND_DIMSIZE temp117397_23)))
(assert (= temp117397_25 #x0000000000000003))
(assert (= temp117397_26 (select ARGNAME_out_backprop_NAMEEND_DIMSIZE temp117397_25)))
(assert (= temp117397_27 #x0000000000000004))
(assert (= temp117397_28 (select ARGNAME_out_backprop_NAMEEND_DIMSIZE temp117397_27)))
(assert (= temp117397_29 #x0000000000000005))
(assert (= temp117397_30 (select ARGNAME_out_backprop_NAMEEND_DIMSIZE temp117397_29)))
(assert (= temp117397_31 #x0000000000000004))
(assert (= temp117397_32 (select ARGNAME_out_backprop_NAMEEND_DIMSIZE temp117397_31)))
(assert (= var77832 temp117397_32))
(assert (= temp117397_33 #x0000000000000004))
(assert (= temp117397_34 (select ARGNAME_filter_NAMEEND_DIMSIZE temp117397_33)))
(assert (= var77833 temp117397_34))
(assert (= var77834 (ite (= var77832 var77833) #x0000000000000001 #x0000000000000000)))
(assert (= temp117397_35 #x0000000000000001))
(assert (= var77834 temp117397_35))
(assert (= temp117397_36 #x0000000000000001))
(assert (= var275510 temp117397_36))
(assert (= temp117397_37 #x0000000000000001))
(assert (= var275528
   (ite (bvslt var275510 temp117397_37) #x0000000000000001 #x0000000000000000)))
(assert (= temp117397_38 #x0000000000000000))
(assert (= var275528 temp117397_38))
(assert (= temp117397_39 #x0000000000000001))
(assert (= var406582 temp117397_39))
(assert (= temp117397_40 #x0000000000000001))
(assert (= var406600
   (ite (bvslt var406582 temp117397_40) #x0000000000000001 #x0000000000000000)))
(assert (= temp117397_41 #x0000000000000000))
(assert (= var406600 temp117397_41))
(assert (= temp117397_42 #x0000000000000001))
(assert (= var537654 temp117397_42))
(assert (= temp117397_43 #x0000000000000001))
(assert (= var537672
   (ite (bvslt var537654 temp117397_43) #x0000000000000001 #x0000000000000000)))
(assert (= temp117397_44 #x0000000000000000))
(assert (= var537672 temp117397_44))
(assert (= temp117397_46 #x00000000000000ff))
(assert (= temp117397_45 temp117397_46))
(assert (= temp117397_48 #x00000000000000ff))
(assert (= temp117397_47 temp117397_48))
(assert (= temp117397_50 #x00000000000000ff))
(assert (= temp117397_49 temp117397_50))
(assert (= temp117397_52 #x0000000000000000))
(assert (= temp117397_51 temp117397_52))
(assert (= temp117397_54 #x0000000000000000))
(assert (= temp117397_53 temp117397_54))
(assert (= temp117397_56 #x0000000000000000))
(assert (= temp117397_55 temp117397_56))
(assert (= temp117397_57 #x0000000000008000))
(assert (= var926770 temp117397_57))
(assert (= temp117397_58 #x0000000000000001))
(assert (= var926771
   (ite (bvslt temp117397_55 temp117397_58)
        #x0000000000000001
        #x0000000000000000)))
(assert (= var926772 (ite (= var926771 #x0000000000000001) var926770 temp117397_55)))
(assert (= var926768 var926772))
(assert (= var599004 var926768))
(assert (= temp117397_59 #x0000000000040000))
(assert (= var992306 temp117397_59))
(assert (= temp117397_60 #x0000000000000001))
(assert (= var992307
   (ite (bvslt temp117397_53 temp117397_60)
        #x0000000000000001
        #x0000000000000000)))
(assert (= var992308 (ite (= var992307 #x0000000000000001) var992306 temp117397_53)))
(assert (= var992304 var992308))
(assert (= var599011 var992304))
(assert (= temp117397_61 #x0000000000200000))
(assert (= var1057842 temp117397_61))
(assert (= temp117397_62 #x0000000000000001))
(assert (= var1057843
   (ite (bvslt temp117397_51 temp117397_62)
        #x0000000000000001
        #x0000000000000000)))
(assert (= var1057844 (ite (= var1057843 #x0000000000000001) var1057842 temp117397_51)))
(assert (= var1057840 var1057844))
(assert (= var599016 var1057840))
(assert (= var78095 var599016))
(assert (= temp117397_63 #x0000000000000003))
(assert (= temp117397_64 #xffffffffffffffff))
(assert (= var78179 (bvadd var78096 temp117397_64)))
(assert (= temp117397_66 #x0000000000000001))
(assert (= temp117397_65 temp117397_66))
(assert (= temp117397_68 #x0000000000000001))
(assert (= temp117397_67 temp117397_68))
(assert (= temp117397_69 #x0000000000000000))
(assert (= var78544 temp117397_69))
(assert (= temp117397_70 #x0000000000000001))
(assert (= var78545 (bvadd var78544 temp117397_70)))
(model-add temp117397_1 () (_ BitVec 64) #x0000000000000005)
(model-add temp117397_2 () (_ BitVec 64) #x0000000000000001)
(model-add var77740 () (_ BitVec 64) #x0000000000000001)
(model-del k!0)
(model-add ARGNAME_filter_NAMEEND_DIM
           ()
           (_ BitVec 64)
           (ite k!0 #x0000000000000005 (bvnot #x0000000000000005)))


